(set-option :produce-models true)
(set-logic QF_UF)
(declare-fun p57() Bool)
(declare-fun p54() Bool)
(declare-fun p2() Bool)
(declare-fun p115() Bool)
(declare-fun p48() Bool)
(declare-fun p111() Bool)
(declare-fun p93() Bool)
(declare-fun p110() Bool)
(declare-fun p100() Bool)
(declare-fun p75() Bool)
(declare-fun p114() Bool)
(declare-fun p104() Bool)
(declare-fun p26() Bool)
(declare-fun p96() Bool)
(declare-fun p77() Bool)
(declare-fun p69() Bool)
(declare-fun p66() Bool)
(declare-fun p49() Bool)
(declare-fun p109() Bool)
(declare-fun p118() Bool)
(declare-fun p46() Bool)
(declare-fun p5() Bool)
(declare-fun p4() Bool)
(declare-fun p79() Bool)
(declare-fun p56() Bool)
(declare-fun p60() Bool)
(declare-fun p42() Bool)
(declare-fun p68() Bool)
(declare-fun p63() Bool)
(declare-fun p33() Bool)
(declare-fun p52() Bool)
(declare-fun p0() Bool)
(declare-fun p90() Bool)
(declare-fun p82() Bool)
(declare-fun p36() Bool)
(declare-fun p9() Bool)
(declare-fun p50() Bool)
(declare-fun p58() Bool)
(declare-fun p38() Bool)
(declare-fun p62() Bool)
(declare-fun p29() Bool)
(declare-fun p25() Bool)
(declare-fun p89() Bool)
(declare-fun p11() Bool)
(declare-fun p14() Bool)
(declare-fun p27() Bool)
(declare-fun p73() Bool)
(declare-fun p87() Bool)
(declare-fun p101() Bool)
(declare-fun p61() Bool)
(declare-fun p53() Bool)
(declare-fun p15() Bool)
(declare-fun p31() Bool)
(declare-fun p86() Bool)
(declare-fun p32() Bool)
(declare-fun p116() Bool)
(declare-fun p16() Bool)
(declare-fun p119() Bool)
(declare-fun p95() Bool)
(declare-fun p83() Bool)
(declare-fun p6() Bool)
(declare-fun p72() Bool)
(declare-fun p41() Bool)
(declare-fun p34() Bool)
(declare-fun p43() Bool)
(declare-fun p13() Bool)
(declare-fun p102() Bool)
(declare-fun p10() Bool)
(declare-fun p20() Bool)
(declare-fun p112() Bool)
(declare-fun p107() Bool)
(declare-fun p17() Bool)
(declare-fun p76() Bool)
(declare-fun p98() Bool)
(declare-fun p28() Bool)
(declare-fun p35() Bool)
(declare-fun p47() Bool)
(declare-fun p51() Bool)
(declare-fun p59() Bool)
(declare-fun p70() Bool)
(declare-fun p64() Bool)
(declare-fun p65() Bool)
(declare-fun p113() Bool)
(declare-fun p1() Bool)
(declare-fun p8() Bool)
(declare-fun p37() Bool)
(declare-fun p94() Bool)
(declare-fun p7() Bool)
(declare-fun p106() Bool)
(declare-fun p105() Bool)
(declare-fun p12() Bool)
(declare-fun p21() Bool)
(declare-fun p108() Bool)
(declare-fun p44() Bool)
(declare-fun p91() Bool)
(declare-fun p80() Bool)
(declare-fun p85() Bool)
(declare-fun p99() Bool)
(declare-fun p19() Bool)
(declare-fun p40() Bool)
(declare-fun p3() Bool)
(declare-fun p74() Bool)
(declare-fun p97() Bool)
(declare-fun p23() Bool)
(declare-fun p88() Bool)
(declare-fun p71() Bool)
(declare-fun p45() Bool)
(declare-fun p78() Bool)
(declare-fun p92() Bool)
(declare-fun p81() Bool)
(declare-fun p24() Bool)
(declare-fun p117() Bool)
(declare-fun p84() Bool)
(declare-fun p103() Bool)
(declare-fun p22() Bool)
(declare-fun p18() Bool)
(declare-fun p55() Bool)
(declare-fun p67() Bool)
(declare-fun p39() Bool)
(declare-fun p30() Bool)
(assert
(and (or p57 p54 p2) (or p115 p48 (not p115)) (or (not p111) p93 p110) (or (not p48) (not p100) (not p75)) (or p114 (not p93) p104) (or (not p26) (not p96) p77) (or p69 (not p66) p49) (or (not p109) (not p118) p75) (or p46 (not p118) p5) (or (not p2) p4 (not p79)) (or p56 (not p60) (not p42)) (or p68 (not p63) p33) (or p46 (not p104) (not p52)) (or (not p0) (not p90) (not p82)) (or (not p36) p56 (not p9)) (or (not p9) (not p50) p58) (or (not p38) p62 p29) (or (not p75) (not p5) p66) (or p25 (not p89) (not p11)) (or (not p36) p14 p27) (or (not p33) (not p52) (not p73)) (or (not p87) (not p101) p61) (or (not p53) p15 p14) (or (not p31) p86 p32) (or p116 (not p16) (not p119)) (or p95 (not p83) p6) (or p53 p69 p72) (or (not p93) p87 p116) (or p36 p58 p5) (or (not p41) p34 (not p31)) (or p73 p36 (not p43)) (or (not p13) (not p42) (not p49)) (or (not p102) p10 p4) (or p20 (not p112) (not p14)) (or (not p107) (not p96) p32) (or p100 p17 p76) (or (not p98) p68 (not p28)) (or p28 (not p75) p54) (or p35 (not p14) p119) (or (not p82) p47 p51) (or (not p59) (not p11) p112) (or p70 (not p64) (not p14)) (or (not p114) (not p54) p65) (or (not p101) p89 p114) (or (not p95) p119 (not p46)) (or (not p112) (not p13) p32) (or p113 (not p68) p66) (or p1 p48 p111) (or (not p63) (not p116) (not p38)) (or p112 (not p112) (not p8)) (or (not p37) (not p94) (not p62)) (or p48 (not p49) (not p7)) (or p50 (not p25) (not p76)) (or (not p69) (not p16) p52) (or (not p2) (not p66) (not p6)) (or (not p69) p76 (not p106)) (or p115 p17 (not p69)) (or p51 (not p57) p107) (or p105 (not p110) p79) (or p76 (not p41) (not p73)) (or p68 (not p113) (not p76)) (or (not p16) p29 (not p95)) (or (not p62) (not p12) p8) (or (not p21) p25 p38) (or (not p14) (not p110) p94) (or p108 p20 p44) (or p91 p17 (not p46)) (or p111 (not p80) p44) (or (not p79) p58 p25) (or p13 (not p85) p99) (or (not p58) (not p89) (not p5)) (or (not p32) p89 (not p13)) (or (not p96) p19 (not p76)) (or (not p65) p31 (not p40)) (or p3 (not p114) p77) (or (not p90) p74 p104) (or p113 p32 p68) (or (not p5) (not p79) p72) (or (not p35) (not p42) p46) (or (not p97) p111 (not p93)) (or p90 p113 p107) (or (not p82) p13 (not p23)) (or p4 p79 p114) (or p64 p83 (not p65)) (or (not p96) p90 p14) (or (not p88) (not p10) p5) (or (not p71) (not p90) (not p45)) (or (not p51) p25 (not p91)) (or (not p112) p52 (not p75)) (or (not p59) (not p112) (not p57)) (or p66 (not p31) (not p91)) (or p78 p89 (not p56)) (or p75 p7 (not p76)) (or (not p98) (not p69) (not p62)) (or p119 p109 (not p47)) (or p92 (not p6) (not p75)) (or p32 (not p7) p3) (or p31 p105 (not p91)) (or (not p27) (not p5) (not p27)) (or (not p59) (not p109) (not p38)) (or p64 p10 (not p10)) (or p73 p36 (not p23)) (or p40 p9 (not p0)) (or (not p116) (not p56) (not p53)) (or p41 p3 (not p7)) (or (not p21) p69 (not p81)) (or (not p104) (not p60) p3) (or p32 p112 p0) (or p81 p79 p1) (or (not p108) p28 p46) (or (not p37) p40 p50) (or (not p86) (not p90) p112) (or (not p68) (not p25) p99) (or (not p86) p105 p68) (or (not p49) p89 (not p10)) (or p96 (not p24) (not p66)) (or p37 p68 (not p66)) (or p60 p117 p107) (or (not p15) (not p84) (not p63)) (or (not p116) (not p9) p41) (or (not p47) (not p60) (not p13)) (or (not p35) p77 p28) (or (not p5) (not p52) (not p15)) (or p63 p92 p88) (or (not p94) (not p49) p114) (or p29 p38 (not p114)) (or (not p103) p58 (not p91)) (or p85 (not p117) p91) (or p110 p17 (not p71)) (or (not p74) p91 p85) (or p48 p88 p90) (or (not p86) (not p34) (not p22)) (or p22 (not p17) p68) (or p12 (not p107) (not p46)) (or p95 (not p9) (not p59)) (or p42 p96 p95) (or p73 (not p32) p100) (or p40 p47 (not p85)) (or p35 (not p103) p7) (or p19 (not p103) (not p70)) (or (not p105) p103 (not p18)) (or p73 p105 (not p86)) (or (not p109) p33 (not p105)) (or p59 p36 p84) (or p57 p32 (not p55)) (or p103 p23 p99) (or p9 p119 p116) (or (not p68) (not p93) p105) (or (not p55) (not p2) p37) (or (not p85) p86 (not p3)) (or p80 p61 (not p63)) (or (not p69) (not p79) (not p14)) (or (not p99) (not p79) p56) (or (not p56) p91 p48) (or p37 p33 p86) (or (not p28) (not p5) (not p99)) (or (not p112) (not p114) (not p113)) (or (not p107) p12 (not p118)) (or p113 p65 (not p112)) (or p21 p10 (not p106)) (or p20 p80 p79) (or p56 (not p117) p119) (or (not p85) (not p69) (not p105)) (or (not p50) p29 p17) (or p78 (not p58) p67) (or (not p9) p110 (not p53)) (or p36 (not p69) (not p107)) (or p84 p12 p111) (or p60 p116 (not p55)) (or p102 (not p24) p79) (or (not p27) p48 (not p13)) (or p32 p65 (not p109)) (or p103 p69 p115) (or p103 p72 p5) (or p22 p81 (not p64)) (or (not p100) p114 p53) (or p61 p74 (not p108)) (or (not p65) (not p12) p47) (or (not p47) p70 p42) (or (not p64) (not p61) (not p24)) (or (not p9) (not p89) p115) (or (not p62) p33 p8) (or p85 p72 (not p105)) (or p1 p113 (not p56)) (or (not p57) p71 p46) (or (not p109) (not p63) (not p32)) (or (not p110) (not p81) (not p94)) (or (not p111) p104 p93) (or (not p61) p39 p54) (or p49 p115 p119) (or (not p35) (not p110) p19) (or p16 p8 p28) (or p88 (not p104) p21) (or (not p118) (not p99) p85) (or (not p79) p41 (not p26)) (or (not p12) p65 (not p3)) (or (not p61) (not p33) (not p99)) (or (not p62) (not p32) (not p71)) (or (not p91) p58 (not p115)) (or p105 p97 p65) (or p24 (not p92) (not p44)) (or p33 (not p78) p53) (or (not p97) (not p82) p9) (or p33 p100 (not p66)) (or (not p38) (not p115) p80) (or p76 p30 p118) (or p107 (not p36) (not p114)) (or (not p23) p64 p87) (or p19 p67 (not p111)) (or p25 p91 (not p5)) (or (not p79) (not p82) (not p9)) (or (not p40) (not p60) (not p43)) (or (not p47) p92 p7) (or (not p108) (not p115) (not p29)) (or (not p49) p97 p50) (or p68 p1 (not p42)) (or p93 (not p90) (not p21)) (or p86 p76 p73) (or (not p13) p97 (not p65)) (or p101 (not p65) p83) (or p33 p59 p37) (or p35 p87 p47) (or p87 (not p107) p103) (or (not p89) p84 p85) (or p84 (not p101) (not p71)) (or (not p46) p106 (not p99)) (or p113 p111 p114) (or (not p65) p26 p39) (or (not p13) (not p67) p31) (or p69 p71 (not p32)) (or (not p88) p58 p79) (or (not p115) p27 p81) (or (not p15) (not p76) (not p87)) (or (not p23) (not p98) p9) (or p11 (not p50) p23) (or (not p75) (not p27) (not p96)) (or p18 p40 p12) (or (not p98) p31 (not p85)) (or p57 p39 (not p83)) (or (not p101) (not p25) p70) (or p112 p79 p98) (or p114 p105 (not p97)) (or p38 p38 (not p14)) (or (not p112) p95 p39) (or (not p45) p7 p6) (or p99 p78 p73) (or p98 (not p60) p29) (or (not p36) p12 p39) (or p26 (not p42) (not p0)) (or p80 (not p15) (not p95)) (or (not p77) p52 p52) (or p107 p5 (not p96)) (or (not p16) (not p42) (not p90)) (or (not p84) (not p85) (not p92)) (or (not p91) (not p101) (not p97)) (or (not p100) (not p26) (not p98)) (or p12 p75 p7) (or (not p86) p94 (not p68)) (or p56 (not p77) p69) (or p91 (not p53) (not p50)) (or (not p44) p27 (not p27)) (or (not p51) p30 (not p28)) (or (not p119) (not p11) p100) (or (not p22) (not p86) p28) (or p110 p111 p52) (or p43 p106 p47) (or (not p13) p76 (not p27)) (or p67 p26 (not p28)) (or (not p119) (not p29) (not p60)) (or p30 (not p63) (not p63)) (or (not p44) p100 (not p56)) (or (not p108) (not p11) p46) (or (not p79) p34 (not p35)) (or (not p40) (not p1) p47) (or (not p23) p87 p99) (or (not p28) (not p73) (not p111)) (or (not p80) p23 (not p84)) (or (not p15) (not p47) p109) (or (not p50) (not p69) (not p118)) (or p106 p61 (not p29)) (or (not p62) p85 (not p75)) (or p93 p107 (not p14)) (or (not p35) (not p31) (not p36)) (or p11 (not p95) (not p81)) (or p102 (not p89) (not p8)) (or p113 (not p119) (not p57)) (or p33 (not p97) (not p60)) (or (not p102) (not p110) p93) (or p30 p61 p115) (or (not p105) (not p114) (not p78)) (or p87 (not p84) p7) (or p96 (not p93) p87) (or p69 p22 (not p69)) (or (not p3) (not p73) (not p56)) (or (not p52) (not p80) (not p77)) (or (not p39) p54 (not p68)) (or (not p32) (not p51) p24) (or p58 (not p66) (not p101)) (or p50 (not p19) (not p72)) (or p91 (not p14) p25) (or p2 p56 (not p91)) (or (not p27) p43 (not p103)) (or (not p17) (not p9) p60) (or (not p80) p24 (not p36)) (or p61 p71 (not p101)) (or (not p23) p40 p35) (or (not p71) p9 (not p69)) (or p104 (not p86) p80) (or p114 (not p104) (not p12)) (or p67 p115 (not p71)) (or p54 (not p40) (not p98)) (or p69 p98 (not p103)) (or (not p10) p45 p2) (or p92 p13 p57) (or p2 p14 p83) (or p10 p75 (not p34)) (or p104 p4 (not p12)) (or (not p110) (not p114) (not p3)) (or p22 (not p82) (not p84)) (or p75 p100 p83) (or (not p20) (not p65) (not p14)) (or (not p76) (not p19) p51) (or p34 (not p27) (not p12)) (or (not p114) p30 (not p51)) (or (not p12) (not p39) p55) (or p58 p44 p95) (or p11 (not p101) (not p119)) (or p98 p102 p14) (or (not p34) p83 (not p54)) (or p118 p117 p5) (or (not p30) p44 p60) (or p9 p42 (not p115)) (or p37 (not p69) (not p22)) (or (not p103) p13 p89) (or p26 p89 (not p52)) (or (not p85) p77 (not p2)) (or (not p54) (not p60) p68) (or (not p116) p10 p32) (or (not p89) (not p16) p55) (or p64 p58 p70) (or (not p81) p84 (not p115)) (or (not p92) (not p68) p106) (or (not p50) (not p10) (not p21)) (or (not p6) p29 (not p33)) (or p93 p79 (not p9)) (or p22 p17 (not p61)) (or (not p23) p12 (not p110)) (or p61 (not p54) p110) (or (not p64) (not p109) p33) (or (not p119) (not p67) (not p29)) (or p110 (not p20) (not p70)) (or p14 p31 (not p96)) (or p42 p33 (not p13)) (or (not p18) p116 (not p31)) (or p110 p60 p104) (or p55 (not p117) p89) (or p86 p34 (not p86)) (or p5 p67 (not p77)) (or (not p87) (not p46) (not p53)) (or (not p10) p59 p14) (or (not p16) (not p82) (not p90)) (or (not p53) p56 (not p68)) (or p110 p11 (not p41)) (or p23 p42 (not p88)) (or p102 (not p71) p9) (or (not p60) (not p58) (not p1)) (or p52 p104 (not p83)) (or (not p109) (not p85) p101) (or p30 (not p27) p29) (or (not p50) p89 p91) (or (not p25) p63 (not p95)) (or p56 p10 (not p12)) (or (not p112) p25 (not p109)) (or p119 p8 p75) (or (not p74) p86 p74) (or (not p52) p3 (not p103)) (or (not p97) (not p103) (not p45)) (or (not p48) (not p90) (not p62)) (or (not p13) (not p38) p81) (or p46 (not p107) (not p1)) (or p52 p18 p20) (or p0 p100 (not p115)) (or (not p101) (not p3) p53) (or (not p115) (not p36) (not p56)) (or (not p78) p75 (not p74)) (or p63 (not p18) (not p80)) (or (not p78) (not p108) (not p7)) (or p2 p37 (not p102)) (or p101 p4 (not p101)) (or p94 (not p66) p47) (or (not p54) p111 (not p116)) (or (not p108) (not p41) p49) (or (not p37) (not p78) (not p112)) (or p35 p46 p46) (or (not p5) (not p11) (not p53)) (or (not p75) p3 (not p58)) (or p72 (not p106) p47) (or p7 (not p23) (not p44)) (or p3 (not p66) p77) (or (not p7) p86 p57) (or p112 p97 p98) (or p85 (not p92) p0) (or p92 p98 (not p104)) (or p12 p25 (not p110)) (or (not p35) p107 p5) (or (not p85) (not p41) p44) (or (not p106) p103 (not p37)) (or p41 (not p24) (not p52)) (or p106 p57 (not p24)) (or p71 (not p20) p0) (or p64 (not p72) p15) (or (not p27) p62 (not p56)) (or (not p23) p39 p97) (or (not p116) p82 p41) (or p87 p19 (not p30)) (or (not p39) p111 p71) (or p34 p105 (not p51)) (or p79 (not p112) p112) (or (not p118) p111 (not p68)) (or p86 p98 p45) (or (not p111) p64 p89) (or p105 (not p53) (not p31)) (or p106 (not p28) p102) (or p59 p68 p9) (or (not p78) p81 (not p92)) (or (not p66) p108 (not p103)) (or (not p103) (not p49) p66) (or (not p63) p47 (not p109)) (or (not p47) p51 p22) (or (not p116) (not p14) p29) (or (not p58) p76 (not p71)) (or (not p117) p58 (not p26)) (or (not p25) (not p10) p25) (or (not p9) p85 p83) (or p53 (not p87) p38) (or p72 p3 (not p42)) (or p86 p29 (not p8)) (or p29 (not p53) (not p107)) (or (not p102) (not p35) p42) (or (not p41) p56 p14) (or (not p118) p56 (not p40)) (or p71 (not p28) (not p55)) (or (not p5) (not p77) (not p86)) (or p79 (not p3) p63) (or p61 (not p47) p59) (or (not p33) p74 p52) (or (not p15) p97 p36) (or (not p62) p27 p114) (or p82 (not p112) p114) (or p63 p99 (not p5)) (or (not p27) (not p72) (not p37)) (or p57 p112 p11) (or (not p119) (not p107) (not p6)) (or (not p92) (not p16) p99) (or (not p56) (not p74) p106) (or (not p91) (not p63) p92) (or (not p31) p80 (not p90)) (or (not p104) (not p61) (not p98)) (or p81 (not p9) (not p85)) (or p9 (not p12) (not p70)) (or p103 p117 (not p55)) (or p94 (not p117) (not p49)) (or (not p119) p96 p4) (or (not p107) (not p46) (not p5)) (or (not p20) p75 p109) (or (not p115) p57 p48) (or (not p49) p48 p28) (or (not p0) (not p12) (not p113)) (or (not p94) p115 (not p9)) (or p65 p118 (not p83)) (or p18 (not p78) p46) (or p105 (not p14) p88) (or (not p103) p50 (not p16)) (or p18 (not p62) (not p14)) (or (not p103) (not p90) p9) (or (not p101) (not p119) (not p33)) (or (not p66) (not p94) p31) (or (not p40) (not p38) p55) (or p51 (not p95) p91) (or p27 (not p54) p19) (or (not p28) p84 (not p93)) (or (not p18) (not p110) p96) (or (not p104) p92 (not p100)) (or p6 p116 (not p115)) (or (not p73) p88 (not p15)) (or p89 p119 (not p39)) (or (not p13) p76 (not p25)) (or (not p74) p23 (not p12)) (or (not p115) (not p15) p87) (or p8 (not p70) p117) (or (not p94) p71 (not p34)) (or (not p3) (not p78) (not p88)) (or (not p61) (not p100) (not p105)) (or (not p107) (not p6) (not p106)) (or (not p93) (not p92) (not p97)) (or p6 (not p30) p20) (or (not p14) (not p86) p10) (or (not p78) p99 (not p114)) (or p51 (not p33) (not p32)) (or p25 (not p81) (not p89)) (or p61 p66 p117) (or p15 p98 (not p9)) (or (not p74) p42 (not p45)) (or (not p84) (not p15) p70) (or (not p33) (not p98) (not p108)) (or (not p94) p53 p10) (or p58 p43 (not p19)) (or p83 p77 (not p91)) (or (not p27) (not p49) (not p81)) (or p24 (not p20) p38) (or (not p45) p115 p8) (or (not p67) p106 (not p119)) (or (not p26) (not p73) p55) (or (not p20) (not p86) p24) (or p42 (not p110) p7) (or (not p89) (not p1) (not p42)) (or (not p65) p51 (not p65)) (or (not p13) p70 (not p61)) (or (not p3) (not p86) p25) (or p41 p25 (not p38)) (or p7 p10 (not p118)) (or (not p78) (not p18) p98) (or (not p11) (not p86) (not p93)) (or p11 (not p15) (not p56)) (or (not p27) (not p101) (not p30)) (or (not p5) p31 p86) (or p47 p34 (not p113)) (or p105 (not p62) (not p116)) (or p19 (not p23) p84) (or (not p22) p63 p118) (or p95 p79 (not p76)) (or (not p117) p21 (not p62)) (or (not p89) p61 p112) (or p112 p116 (not p64)) (or (not p65) p28 p9) (or (not p95) (not p55) (not p52)) (or p33 p83 (not p89)) (or (not p86) (not p37) (not p111)) (or (not p43) (not p99) p58) (or (not p67) p9 (not p80)) (or p83 (not p115) (not p4)) (or (not p60) (not p94) p61) (or p91 p0 (not p102)) (or p33 p44 (not p51)) (or (not p80) p75 (not p109)) (or p105 (not p62) (not p48)) (or p44 p59 p56) (or (not p101) p67 (not p60)) (or p3 (not p97) (not p56)) (or (not p60) p25 (not p75)) (or (not p23) (not p116) (not p6)) (or p95 p6 (not p111)) (or p78 (not p117) (not p82)) (or p95 (not p110) (not p70)) (or p107 p90 (not p50)) (or (not p28) (not p117) (not p42)) (or p87 (not p19) p42) (or (not p97) (not p10) p32) (or p10 p96 p25) (or p82 (not p1) p34) (or (not p102) p36 p47) (or p8 (not p34) p80) (or (not p34) p54 p109) (or (not p49) p5 (not p107)) (or (not p61) p16 p70) (or p27 (not p103) p36) (or (not p21) p17 (not p49)) (or (not p30) p90 (not p70)) (or p75 p83 (not p17)) (or (not p38) p75 (not p1)) (or p77 (not p39) p104) (or p91 (not p16) p53) (or (not p85) (not p40) p5) (or p15 p58 (not p89)) (or (not p79) p82 (not p82)) (or (not p26) p40 p89) (or (not p115) (not p70) (not p81)) (or p94 (not p67) (not p51)) (or (not p107) (not p47) p116) (or (not p104) (not p30) (not p92)) (or p35 p13 p63) (or (not p18) p5 (not p109)) (or (not p101) (not p106) p11) (or (not p53) (not p13) (not p2)) (or p102 p100 (not p113)) (or (not p46) p77 p108) (or (not p91) (not p89) p21) (or p89 (not p83) (not p105)) (or (not p28) p99 (not p99)) (or (not p90) p29 p12) (or (not p115) p98 (not p84)) (or (not p18) p20 p24) (or (not p84) p24 (not p55)) (or p23 p40 (not p28)) (or p88 p50 (not p119)) (or p66 p59 (not p37)) (or p21 p112 (not p34)) (or (not p107) (not p57) (not p17)) (or p104 (not p12) (not p70)))
)
(check-sat)
(get-model)
